NAME : n40w200.004.301.tour
COMMENT : Length = 301
COMMENT : Found by LKH [Keld Helsgaun] Tue May  2 05:19:05 2017
TYPE : TOUR
DIMENSION : 41
TOUR_SECTION
1
3
4
19
38
17
12
25
29
30
16
18
2
40
11
7
27
20
21
28
9
23
6
22
8
34
24
39
33
35
14
15
31
26
13
36
32
5
37
10
41
-1
EOF
